========================================================== 
File name: C:\DEGR\assets\definitions\MSRCPSP_Gen\500_40_512_5_C.def
Creation date: Sat May 06 09:16:27 CEST 2023
Website: http://imopse.ii.pwr.edu.pl/ 
Reference: 
Myszkowski P. B., Skowronski M. E., Olech L., Oslizlo K., 
Hybrid Ant Colony Optimization in solving Multi-Skill Resource-Constrained Project Scheduling Problem, 
Soft Computing, DOI: DOI 10.1007/s00500-014-1455-x 
========================================================== 
General characteristics: 
Tasks: 500
Resources: 40
Precedence relations: 512
Number of skill types: 5
========================================================== 
ResourceID 	 Salary 	 Skills 
1	 	 	19.5	 	 Q0: 0 	  Q3: 0 	  Q2: 2 	  Q4: 1 	 
2	 	 	92.0	 	 Q0: 0 	 
3	 	 	38.7	 	 Q3: 0 	  Q2: 2 	  Q4: 1 	  Q1: 3 	 
4	 	 	54.1	 	 Q4: 2 	  Q1: 1 	  Q3: 1 	  Q2: 1 	 
5	 	 	35.4	 	 Q4: 3 	  Q2: 3 	 
6	 	 	97.9	 	 Q1: 2 	  Q0: 2 	  Q2: 2 	 
7	 	 	50.2	 	 Q0: 3 	  Q3: 1 	  Q4: 1 	 
8	 	 	41.3	 	 Q4: 0 	  Q2: 3 	  Q0: 2 	 
9	 	 	50.1	 	 Q2: 1 	  Q1: 2 	 
10	 	 	16.3	 	 Q0: 3 	 
11	 	 	76.4	 	 Q4: 3 	  Q0: 3 	  Q1: 2 	 
12	 	 	47.2	 	 Q4: 2 	  Q0: 2 	 
13	 	 	71.5	 	 Q2: 2 	  Q0: 2 	  Q4: 2 	 
14	 	 	68.9	 	 Q2: 1 	  Q4: 0 	 
15	 	 	11.5	 	 Q3: 2 	  Q0: 2 	  Q1: 2 	  Q2: 1 	 
16	 	 	75.7	 	 Q2: 2 	 
17	 	 	91.8	 	 Q3: 3 	  Q2: 2 	  Q4: 3 	 
18	 	 	55.2	 	 Q4: 1 	 
19	 	 	45.2	 	 Q0: 3 	 
20	 	 	87.2	 	 Q0: 3 	  Q3: 1 	  Q4: 3 	  Q2: 1 	 
21	 	 	79.2	 	 Q2: 3 	 
22	 	 	11.1	 	 Q3: 1 	  Q0: 0 	  Q1: 2 	 
23	 	 	72.7	 	 Q2: 2 	 
24	 	 	18.3	 	 Q2: 3 	  Q1: 1 	 
25	 	 	60.3	 	 Q1: 3 	 
26	 	 	10.5	 	 Q0: 1 	 
27	 	 	30.2	 	 Q3: 0 	  Q4: 1 	  Q2: 0 	  Q0: 2 	 
28	 	 	95.6	 	 Q0: 2 	 
29	 	 	98.8	 	 Q2: 2 	  Q1: 1 	  Q4: 2 	 
30	 	 	76.5	 	 Q2: 1 	  Q3: 0 	  Q4: 0 	 
31	 	 	40.8	 	 Q0: 3 	 
32	 	 	54.7	 	 Q0: 3 	  Q1: 1 	  Q2: 0 	  Q4: 3 	 
33	 	 	29.9	 	 Q1: 3 	  Q3: 0 	 
34	 	 	14.9	 	 Q0: 2 	  Q4: 2 	  Q1: 2 	  Q3: 1 	 
35	 	 	35.9	 	 Q1: 0 	  Q2: 1 	  Q4: 1 	  Q0: 2 	 
36	 	 	28.7	 	 Q4: 0 	 
37	 	 	78.9	 	 Q2: 2 	  Q1: 1 	 
38	 	 	13.9	 	 Q1: 0 	  Q2: 0 	  Q4: 3 	  Q0: 3 	 
39	 	 	67.8	 	 Q2: 0 	 
40	 	 	73.8	 	 Q1: 0 	 
========================================================== 
TaskID 	 Duration 	 Skill 	 Predecessor IDs 
1	38	Q0:	0
2	26	Q3:	2
3	33	Q3:	2
4	34	Q2:	1
5	30	Q2:	2
6	35	Q3:	1
7	26	Q2:	3
8	24	Q3:	1
9	25	Q3:	1
10	21	Q3:	0
11	40	Q0:	2
12	33	Q3:	3
13	35	Q1:	3
14	28	Q1:	1
15	23	Q3:	2
16	10	Q1:	3
17	25	Q1:	1
18	27	Q0:	0
19	34	Q1:	0
20	21	Q1:	2
21	16	Q0:	3
22	19	Q0:	1
23	27	Q2:	2
24	26	Q2:	3	14
25	36	Q1:	1
26	32	Q4:	1
27	24	Q2:	0
28	30	Q2:	0	16
29	36	Q1:	0
30	11	Q0:	2
31	16	Q3:	2
32	11	Q0:	2
33	30	Q2:	0
34	34	Q2:	3
35	32	Q3:	3
36	19	Q0:	1	9	18
37	27	Q2:	1
38	14	Q4:	2
39	28	Q4:	1
40	34	Q0:	1
41	16	Q1:	3	40	21
42	32	Q1:	3
43	19	Q3:	0
44	12	Q2:	2
45	28	Q0:	2
46	30	Q0:	0
47	17	Q2:	0
48	36	Q1:	0
49	24	Q2:	1	19
50	11	Q0:	1	37
51	23	Q3:	3
52	16	Q0:	3
53	9	Q1:	3
54	11	Q1:	2
55	10	Q2:	0
56	30	Q3:	3	17
57	36	Q0:	0
58	9	Q1:	3	27	51
59	25	Q2:	3
60	11	Q2:	3
61	17	Q1:	3	9
62	9	Q2:	3	8
63	11	Q2:	3
64	24	Q4:	1
65	12	Q2:	2
66	9	Q0:	3
67	21	Q0:	1
68	35	Q0:	3
69	20	Q1:	1
70	20	Q0:	3
71	9	Q1:	1
72	20	Q4:	3
73	20	Q2:	0
74	22	Q1:	0
75	18	Q4:	0	20	55
76	30	Q3:	1
77	20	Q2:	3
78	24	Q0:	3
79	31	Q1:	1
80	24	Q3:	3	72
81	23	Q2:	1
82	24	Q0:	0	66
83	23	Q1:	2
84	13	Q1:	1
85	11	Q2:	2
86	20	Q1:	3
87	11	Q1:	0
88	27	Q2:	0
89	11	Q0:	2	17
90	19	Q3:	0	7
91	26	Q4:	2
92	11	Q4:	2	30
93	25	Q4:	1
94	15	Q1:	3
95	26	Q3:	0
96	30	Q0:	3
97	38	Q0:	0
98	15	Q0:	2
99	31	Q3:	2	39
100	37	Q4:	1
101	13	Q2:	1	61
102	35	Q3:	0	26
103	23	Q2:	1
104	39	Q0:	2	91	29
105	9	Q3:	1	37
106	13	Q3:	1
107	14	Q4:	0
108	30	Q0:	0
109	39	Q0:	0
110	14	Q1:	0
111	33	Q3:	0	4
112	24	Q4:	2
113	24	Q2:	1	54
114	27	Q3:	2
115	14	Q4:	2	80
116	24	Q2:	1	54
117	20	Q4:	0
118	29	Q1:	1
119	17	Q0:	3	118	8
120	23	Q4:	3
121	18	Q0:	3
122	26	Q2:	1	14
123	28	Q0:	0
124	17	Q3:	1
125	40	Q3:	1	87	14
126	10	Q2:	3	111
127	18	Q3:	1
128	35	Q0:	3	54
129	12	Q2:	2
130	32	Q1:	1
131	23	Q3:	3
132	15	Q4:	3	124
133	31	Q3:	2	60
134	20	Q1:	3
135	15	Q3:	1
136	22	Q0:	0	10
137	38	Q1:	1	108	53
138	15	Q0:	2
139	39	Q4:	2
140	28	Q4:	2
141	17	Q4:	1	9
142	31	Q0:	2
143	19	Q4:	3
144	23	Q1:	2
145	17	Q0:	2	95
146	9	Q4:	2
147	20	Q3:	2	145	129	88
148	9	Q1:	1
149	30	Q3:	0
150	10	Q3:	2
151	30	Q0:	0	51
152	21	Q4:	1	56
153	18	Q2:	3	133
154	30	Q0:	0	3
155	26	Q3:	1	99	83
156	10	Q1:	1	150
157	13	Q3:	1
158	36	Q3:	0	49
159	24	Q3:	0
160	40	Q2:	2	39
161	35	Q0:	3
162	13	Q1:	3	71
163	21	Q1:	1
164	28	Q2:	2
165	38	Q0:	2
166	14	Q3:	3	25	157
167	11	Q4:	3
168	34	Q3:	0
169	11	Q3:	2
170	12	Q3:	3	84
171	26	Q3:	2	103
172	12	Q2:	3	129
173	28	Q4:	0	55	71
174	22	Q3:	0	159
175	21	Q4:	0
176	19	Q4:	1
177	12	Q3:	1	115	90	34
178	23	Q0:	2	52	137
179	20	Q0:	3
180	40	Q2:	3
181	11	Q1:	0	40
182	26	Q3:	0
183	20	Q4:	1	2
184	19	Q4:	0	27
185	30	Q0:	3
186	19	Q3:	2	185	102
187	14	Q3:	0	90
188	28	Q0:	1
189	18	Q2:	3
190	28	Q1:	2
191	10	Q2:	3	165
192	31	Q1:	2	22
193	19	Q0:	3
194	17	Q0:	0	101	57
195	29	Q2:	2	112
196	21	Q2:	3
197	18	Q3:	0
198	21	Q1:	2
199	9	Q1:	3	36
200	15	Q0:	2
201	39	Q4:	3
202	12	Q1:	3
203	17	Q3:	0	86	96
204	29	Q3:	0
205	17	Q3:	3
206	12	Q3:	2	186
207	25	Q4:	2	110	52	20
208	14	Q0:	2
209	9	Q2:	0	120
210	30	Q2:	0	179	162
211	30	Q3:	2	116
212	30	Q2:	1
213	26	Q1:	1
214	24	Q1:	3	176	12
215	26	Q1:	0
216	16	Q2:	2	168
217	40	Q1:	2	143
218	26	Q0:	2
219	11	Q4:	2
220	36	Q4:	3
221	38	Q0:	1
222	38	Q1:	2	102
223	20	Q1:	3
224	33	Q4:	3	27
225	13	Q4:	2	57	92
226	23	Q1:	1	21	143
227	15	Q2:	0	221
228	40	Q0:	0
229	25	Q1:	1	41	39	115	136	184	89
230	23	Q1:	2
231	31	Q2:	2
232	22	Q0:	3
233	29	Q4:	0	150	72	98
234	12	Q2:	3
235	20	Q3:	0
236	36	Q1:	3
237	19	Q4:	2
238	13	Q2:	3
239	27	Q1:	0	171
240	10	Q4:	1
241	9	Q4:	2	6
242	12	Q0:	2
243	28	Q4:	3	97
244	11	Q3:	1	25
245	37	Q3:	3	26
246	16	Q4:	3	72
247	31	Q1:	0	163	29	181	184
248	33	Q1:	3
249	17	Q3:	1	5
250	36	Q1:	1	227
251	18	Q4:	2
252	33	Q4:	0	72	78
253	38	Q3:	1	91
254	26	Q2:	1	141
255	9	Q2:	2	108
256	19	Q1:	0	19
257	32	Q2:	0	26	195
258	19	Q3:	2
259	9	Q1:	3	114	112
260	33	Q3:	0
261	31	Q2:	3
262	19	Q4:	0
263	19	Q1:	2	29
264	23	Q3:	0
265	23	Q4:	3	138
266	33	Q3:	1	47
267	12	Q2:	3	129	2	207
268	37	Q1:	1
269	32	Q0:	3	131	18
270	40	Q3:	0	243
271	30	Q3:	2	238
272	17	Q3:	2	156	130
273	35	Q1:	1	181
274	23	Q2:	1	262
275	23	Q4:	2	70	18
276	9	Q1:	0
277	35	Q0:	1	16	160
278	22	Q3:	2	98
279	24	Q4:	3	201
280	9	Q3:	2	86
281	29	Q2:	1	217	179
282	26	Q1:	0	217	78
283	21	Q0:	2	190	178	267
284	33	Q4:	3	240
285	31	Q4:	3	83
286	32	Q3:	3
287	40	Q1:	1	135
288	16	Q0:	2	277
289	11	Q0:	2	133
290	24	Q2:	2	61
291	38	Q2:	2	125
292	15	Q1:	2	206	189
293	27	Q3:	3
294	15	Q3:	2	63
295	9	Q4:	1	84
296	20	Q1:	1	102	179	132
297	34	Q1:	2	208	76
298	10	Q2:	1	199	103
299	40	Q4:	1
300	9	Q4:	3
301	31	Q0:	0
302	29	Q3:	0
303	22	Q1:	2	40	97	279
304	35	Q0:	3	160
305	30	Q3:	0	226
306	33	Q2:	0	264	54	99
307	24	Q1:	0
308	13	Q0:	3	13
309	23	Q4:	0	273
310	38	Q3:	3	223	260	94	156
311	40	Q3:	0	66	240
312	21	Q4:	2	169	139	261
313	16	Q1:	3
314	12	Q1:	3	141
315	33	Q2:	2	159	98
316	33	Q0:	2
317	28	Q0:	2	256	253
318	13	Q3:	2	69
319	37	Q1:	3	290	161
320	25	Q0:	2
321	29	Q2:	1	207
322	29	Q4:	1	4	145	271	133
323	12	Q2:	0	67	196	192
324	11	Q0:	2
325	40	Q4:	0	163
326	18	Q1:	3	20	258	219	3
327	40	Q2:	1	41
328	24	Q2:	0	121
329	14	Q2:	1	241
330	32	Q4:	2	178
331	40	Q3:	0	306
332	32	Q2:	2	136	71
333	14	Q0:	1	142
334	39	Q3:	0
335	22	Q1:	3	80	264	201
336	11	Q3:	0	178
337	22	Q0:	3	102	167
338	27	Q2:	0	46
339	32	Q1:	0	202
340	28	Q2:	1	201
341	34	Q0:	1
342	24	Q1:	3	83
343	15	Q1:	1
344	38	Q3:	1	164	307	339
345	24	Q0:	3	192	304
346	10	Q4:	1
347	18	Q1:	1	301	185
348	10	Q3:	3	291
349	32	Q2:	1	334
350	37	Q3:	0	110	48	227	215
351	31	Q0:	2
352	19	Q1:	3	77
353	34	Q2:	0	314	248	229	120	151
354	9	Q3:	0	124	282	51	21
355	35	Q3:	0	130	115	333	242	103
356	19	Q2:	1	138	108
357	30	Q2:	1	329
358	12	Q0:	2
359	19	Q1:	1	286
360	34	Q2:	0	358
361	22	Q0:	3	228
362	20	Q4:	0
363	23	Q0:	0
364	32	Q1:	0	253	109
365	35	Q0:	1	187	157	212
366	21	Q1:	0
367	37	Q0:	0	153	157
368	31	Q4:	3
369	40	Q1:	2
370	19	Q4:	0	205	81	103
371	25	Q3:	1	291	337	304
372	32	Q0:	1
373	34	Q4:	0	62
374	22	Q1:	0	343
375	11	Q2:	3
376	38	Q2:	1
377	18	Q1:	2	268	281	201
378	9	Q3:	0	371	306
379	40	Q1:	1	287
380	28	Q0:	1
381	33	Q4:	0	244	141
382	36	Q4:	3	169	58
383	23	Q1:	3
384	40	Q3:	1	6
385	13	Q0:	1
386	36	Q3:	3	267
387	11	Q4:	0	106
388	30	Q4:	3
389	17	Q4:	0	388
390	25	Q3:	1
391	37	Q2:	3	80	336
392	25	Q4:	2	23	96
393	18	Q1:	1	301	230	318	307	198	92
394	22	Q0:	2	289	80
395	9	Q0:	2	306	100	227
396	20	Q2:	3
397	39	Q0:	3
398	35	Q0:	3	315	150	283	206
399	34	Q4:	2
400	39	Q2:	1	8	179	335
401	35	Q1:	2
402	16	Q0:	0	360
403	29	Q1:	0	207
404	40	Q4:	0	125	283
405	22	Q2:	3	362	69
406	31	Q2:	2	20	319
407	15	Q0:	0	300	50	109
408	26	Q2:	1	312	386	53	251	325
409	9	Q0:	1	247	356
410	38	Q3:	0	338	24
411	18	Q0:	2
412	30	Q4:	0
413	15	Q4:	1	316
414	15	Q0:	3	74
415	23	Q1:	1	118	82	246
416	15	Q2:	3	402	216	204	168	282
417	15	Q0:	2	370
418	15	Q2:	2
419	37	Q3:	3	58	302
420	36	Q0:	1
421	28	Q1:	0	119
422	35	Q2:	2	251
423	25	Q0:	3	3
424	9	Q1:	3	294
425	21	Q3:	0	342
426	32	Q2:	3	292
427	29	Q0:	0	131
428	22	Q4:	1	76
429	37	Q2:	2	22	113	91	50
430	40	Q0:	0
431	37	Q2:	2	272	35
432	40	Q0:	3	390
433	38	Q4:	1
434	13	Q2:	3	65	69
435	24	Q2:	1	120	164
436	15	Q0:	0	63	156
437	9	Q1:	1	258
438	10	Q0:	3	40	96
439	20	Q2:	3	107	294	300	41
440	37	Q0:	0	103
441	14	Q3:	1	348	108
442	28	Q2:	0	22	440
443	14	Q1:	1	320
444	23	Q4:	2	13
445	38	Q3:	3	289	45	379
446	15	Q3:	1	3	206	5	296	320
447	28	Q0:	1	438
448	36	Q2:	0	100	231
449	30	Q1:	1	169
450	16	Q4:	2	20	157	181
451	29	Q1:	3	359	2
452	38	Q2:	2	401	330	143	361	194
453	18	Q2:	3	292	396	380	381
454	12	Q4:	2	318	324	46
455	16	Q3:	3	145	76	91
456	39	Q3:	0	266	229	367
457	40	Q3:	3	104	361	156	244
458	40	Q0:	1	61
459	14	Q0:	2	139	78
460	38	Q1:	1	197	430	107	273
461	30	Q1:	3	14	317
462	23	Q4:	0
463	18	Q0:	2	129
464	31	Q1:	3	343
465	34	Q2:	2	8
466	30	Q1:	3	332	463
467	26	Q3:	3	244	256
468	10	Q1:	3
469	40	Q4:	0	468	230
470	25	Q0:	1	380	116
471	39	Q3:	3	346	260
472	18	Q3:	2	319	246
473	31	Q2:	2	125	75
474	24	Q2:	3	43
475	34	Q0:	2	186	34
476	19	Q1:	3	386	406
477	33	Q1:	3	97
478	21	Q1:	3	416	325	18
479	40	Q4:	0	130	330	262	45
480	25	Q3:	3	309	341
481	19	Q0:	0	159
482	17	Q1:	2	102	148
483	31	Q4:	3	369
484	36	Q4:	1	432	18	397
485	18	Q2:	0	309	50	22	221
486	38	Q0:	0	159	228	412	457	285
487	16	Q4:	2	485	119
488	30	Q2:	2
489	24	Q4:	3	289
490	37	Q1:	1	487	273	110
491	12	Q3:	1	353	183	220
492	19	Q3:	0	49	291
493	32	Q1:	1
494	38	Q2:	0	201	262	313
495	17	Q4:	1	60	245
496	25	Q3:	0	76	248
497	40	Q0:	3	378	342
498	37	Q0:	1	57
499	18	Q3:	2	247	448	61	410
500	34	Q2:	2
========================================================== 